c This is UnifRandomKSATGenerator
c uniform random 3-SAT generated instance with: 
c clause length: 3 
c number variables: 10 
c number clauses: 43 
c clause to variable ratio: 4.27 
c random number generator name: SHA1PRNG 
c random number generator provider: SUN 
c random number generator seed: 6409881663102105536 
p cnf 10 43
-1 9 7 0
-2 10 5 0
-1 9 -5 0
1 -2 9 0
-10 -2 -6 0
-9 4 7 0
-5 4 7 0
-9 3 -4 0
-1 -9 -8 0
-2 3 -6 0
8 -3 10 0
-1 8 9 0
8 -10 -2 0
3 -6 -8 0
1 4 5 0
-1 9 4 0
1 4 7 0
-10 3 4 0
-10 -2 -5 0
9 -10 3 0
-1 -3 -5 0
-1 7 -8 0
-9 -3 6 0
-2 3 6 0
8 4 7 0
10 -3 -7 0
-2 -10 -4 0
-1 -4 -8 0
-3 6 7 0
9 2 -7 0
-9 4 -6 0
9 2 -5 0
2 -3 7 0
8 2 -3 0
3 6 7 0
-2 10 -3 0
-5 -7 -8 0
9 10 -4 0
-9 2 -5 0
1 -10 -7 0
9 -2 10 0
-9 8 -1 0
1 -6 7 0
